p cnf 91 377
4 23 -51 68 -91 0
-5 52 62 -78 84 0
7 8 9 -47 55 0
10 20 22 69 -72 0
12 13 58 -78 79 0
12 58 -73 78 79 0
-14 -31 58 -73 78 0
23 25 32 56 59 0
-42 46 -60 83 -87 0
8 9 -47 -48 55 0
-31 58 -73 78 79 0
1 7 42 45 0
-1 -3 50 -89 0
-1 -24 27 -34 0
2 24 -32 59 0
2 -32 59 61 0
3 19 -50 68 0
-3 4 -16 91 0
-3 -16 -19 91 0
-3 -23 -50 -89 0
-3 -23 67 91 0
4 23 -51 -91 0
-4 78 82 84 0
5 -52 -74 -82 0
-5 52 -63 78 0
-6 36 62 82 0
7 45 55 64 0
10 11 26 34 0
10 21 22 -72 0
10 21 22 -77 0
11 12 26 34 0
11 12 -34 57 0
-12 57 78 -79 0
13 -31 58 -79 0
-13 -49 68 -91 0
-13 -49 90 -91 0
-13 -85 90 -91 0
-14 -15 -31 58 0
17 44 -71 77 0
-17 22 -44 77 0
-18 -19 -54 81 0
-18 -23 -48 -55 0
-18 -38 47 -64 0
19 -75 -76 -80 0
-19 51 81 85 0
-19 -51 -81 -85 0
20 22 -69 -77 0
20 -38 53 71 0
20 53 -70 71 0
20 -54 -70 71 0
23 38 39 54 0
23 -42 45 60 0
23 74 -75 -76 0
-23 -51 -81 -85 0
25 -32 -33 -34 0
25 65 -74 76 0
29 -30 57 73 0
32 56 59 61 0
-35 37 -74 82 0
41 -54 70 72 0
49 67 -68 91 0
-51 -68 -85 -91 0
-1 -24 -59 62 0
3 51 67 68 0
-3 50 -89 91 0
-8 42 46 83 0
11 26 -28 34 0
12 57 -73 78 0
-15 29 -31 58 0
-17 22 70 -77 0
-18 -19 -60 -69 0
20 22 -72 88 0
23 25 27 56 0
23 39 41 64 0
25 -32 -33 -59 0
29 -30 58 -73 0
46 -47 -48 64 0
-50 51 68 -89 0
1 2 -62 0
1 -8 10 0
1 -10 27 0
1 60 -87 0
-1 8 83 0
-1 8 -88 0
2 5 -62 0
2 33 56 0
2 56 61 0
-2 -5 35 0
-2 -5 74 0
3 23 51 0
3 -25 -59 0
3 -32 -62 0
3 66 89 0
-3 50 67 0
4 16 49 0
4 19 -65 0
4 -61 78 0
-4 -19 -84 0
-4 -61 -78 0
5 -78 -84 0
-5 -63 82 0
6 -36 -37 0
-6 -30 63 0
-6 -35 59 0
7 46 60 0
-7 8 -45 0
-7 -8 -42 0
8 -45 -48 0
8 64 -70 0
-8 -9 -45 0
-8 -46 -55 0
-8 -46 -83 0
-8 -69 -70 0
-8 -83 87 0
9 40 -43 0
-9 -40 43 0
10 11 -27 0
10 11 57 0
10 -21 -72 0
10 -27 -57 0
-10 14 73 0
-10 -24 -26 0
11 12 15 0
11 -27 -28 0
-11 -15 57 0
-11 -19 -57 0
-11 76 80 0
12 13 57 0
13 -31 79 0
13 -86 -90 0
-13 -49 68 0
-13 -85 90 0
-13 -85 -91 0
-13 90 -91 0
14 78 -79 0
-14 -15 57 0
-14 57 -73 0
-14 58 76 0
15 -29 30 0
-16 66 68 0
17 18 40 0
17 -20 -22 0
-17 -18 -23 0
-17 -19 -40 0
18 21 69 0
18 38 64 0
19 60 69 0
19 64 81 0
19 81 85 0
-19 25 36 0
-19 -26 -28 0
-19 -79 80 0
20 -38 53 0
-20 -21 70 0
21 70 88 0
-22 41 53 0
23 48 69 0
23 -74 -75 0
-23 -27 -28 0
-23 81 86 0
-23 -89 91 0
25 29 33 0
25 65 80 0
27 30 34 0
29 57 -73 0
30 -33 34 0
-31 -73 79 0
-31 -73 -79 0
32 -61 -63 0
33 36 37 0
-35 -56 -61 0
-35 -61 65 0
-35 63 65 0
36 -37 63 0
37 52 -63 0
38 53 -70 0
38 70 -88 0
-38 54 72 0
-39 -40 -64 0
-39 -44 -55 0
40 43 -87 0
40 -49 51 0
-40 -43 87 0
-43 44 -87 0
-44 53 71 0
45 48 55 0
-45 48 70 0
-49 90 -91 0
50 66 67 0
50 66 86 0
50 -66 86 0
50 -66 89 0
50 -66 -89 0
-51 -68 -89 0
-58 -76 -80 0
60 -69 70 0
-63 82 -84 0
-65 74 -82 0
66 -86 -90 0
-66 -67 86 0
-66 -67 -86 0
69 70 83 0
-72 77 88 0
-73 -79 -80 0
-85 90 -91 0
1 2 0
1 3 0
1 21 0
1 -42 0
1 -52 0
1 -60 0
-1 -2 0
-1 -20 0
-1 -36 0
-1 -56 0
-1 -83 0
-1 84 0
2 6 0
-2 61 0
3 24 0
3 -51 0
3 56 0
-3 32 0
-3 51 0
-3 52 0
-3 89 0
4 17 0
4 19 0
4 33 0
4 51 0
4 -52 0
4 63 0
4 68 0
4 -78 0
4 -82 0
4 -91 0
-4 -23 0
-4 61 0
-4 82 0
5 63 0
5 84 0
-5 6 0
-5 -65 0
-5 78 0
6 35 0
6 -62 0
6 -82 0
-6 -61 0
-6 74 0
-6 82 0
7 8 0
7 9 0
7 -50 0
7 -55 0
-7 -19 0
-7 -46 0
-7 -60 0
-7 87 0
8 -10 0
8 -37 0
8 40 0
8 -46 0
8 86 0
-8 -10 0
-8 48 0
-8 54 0
-8 -64 0
-8 88 0
9 45 0
-9 -46 0
10 26 0
10 34 0
10 -56 0
10 -57 0
10 -58 0
10 -60 0
10 -77 0
-10 15 0
-10 24 0
-10 -60 0
11 14 0
11 -28 0
11 -31 0
11 -34 0
-11 -76 0
12 26 0
12 34 0
12 -34 0
12 58 0
-12 31 0
-12 -48 0
-12 57 0
-12 -57 0
-12 73 0
-12 -78 0
13 -16 0
13 -31 0
13 49 0
13 57 0
13 58 0
13 84 0
13 -86 0
13 89 0
13 -90 0
13 91 0
-13 -47 0
-13 90 0
14 -29 0
14 31 0
14 -58 0
14 -78 0
14 79 0
-14 78 0
15 -57 0
15 -58 0
-15 -29 0
-15 -80 0
16 50 0
16 51 0
-16 -23 0
-16 -49 0
-16 -67 0
17 22 0
17 23 0
17 39 0
17 60 0
-17 18 0
-17 44 0
18 41 0
18 42 0
18 47 0
18 48 0
18 54 0
-18 42 0
-18 -44 0
-18 -47 0
-18 59 0
-18 81 0
19 21 0
19 26 0
19 -30 0
19 -36 0
19 47 0
19 54 0
19 59 0
19 -68 0
19 -75 0
-19 -27 0
-19 34 0
-19 -38 0
-19 -41 0
-19 -43 0
-19 -47 0
-19 -48 0
-19 -56 0
-19 79 0
-19 -86 0
-19 89 0
-19 -89 0
20 39 0
20 -54 0
20 -70 0
20 -77 0
-20 53 0
-20 -53 0
-20 69 0
-20 72 0
-20 77 0
21 23 0
21 -72 0
-21 39 0
-21 -69 0
-21 -77 0
-21 88 0
-21 -88 0
22 41 0
22 -53 0
